166 300 25 24 57 164 110 76 32 16 13 97 51 82 154 147 120 12 91 174 87 122 192 137 3 1 121 6 61 163 14 125 28 39 100 36 2 9 112 185 177 76 82 179 158 187 77 29 199 167 3 37 41 194 173 43 147 93 1 7 7 14 83 186 4 182 22 158 143 85 142 71 160 175 49 69 162 126 98 112 44 100 148 84 93 120 127 39 13 127 197 171 92 79 157 96 13 178 53 155 14 194 177 173 121 25 42 34 102 91 145 146 190 92 29 34 163 107 73 127 185 69 98 77 100 54 124 112 183 176 18 196 121 194 120 193 170 113 26 72 3 170 169 192 13 149 26 128 56 50 54 40 70 103 68 169 108 191 32 90 118 49 37 191 42 109 183 12 